(set-logic LIA) (declare-var xPostExec Int) (declare-var x!10 Int) (declare-var y!M0 Int) (declare-var y!14 Int) (declare-var z!M0 Int) (declare-var x!M0 Int) (declare-var zPostExec Int) (declare-var yPostExec Int) (declare-var z!21 Int) (declare-var J4 Bool) (synth-fun rankingFunction!0 ((arg0 Int) (arg1 Int) (arg2 Int)) Int ((NTInt Int) (NTbool Bool)) ((NTInt Int (arg0 arg1 arg2 0 1 (- NTInt) (+ NTInt NTInt) (- NTInt NTInt) (ite NTbool NTInt NTInt))) (NTbool Bool ((not NTbool) (and NTbool NTbool) (or NTbool NTbool) (ite NTbool NTbool NTbool) (= NTInt NTInt) (< NTInt NTInt) (> NTInt NTInt))))) (constraint (=> (and (and (and (and (and (and (and (= J4 (not (<= 0 x!M0))) (= x!10 (+ x!M0 y!M0))) (= y!14 z!M0)) (= z!21 (+ (- 1) (* (- 1) z!M0)))) (=> (not J4) (= xPostExec x!10))) (=> (not J4) (= yPostExec y!14))) (=> (not J4) (= zPostExec z!21))) (not J4)) (and (> (rankingFunction!0 x!M0 y!M0 z!M0) (rankingFunction!0 xPostExec yPostExec zPostExec)) (>= (rankingFunction!0 x!M0 y!M0 z!M0) 0)))) (check-synth)